! RHF SZ LARGEPRINT PRINTBASIS PRINTGAP ALLPOP

* xyz 0 1 
Li      -2.6077434864      1.6215265031      0.0435645003                 
H       -0.7878755679      1.5789122137      0.0000000000                 
*
