! RHF VTZ LARGEPRINT PRINTBASIS PRINTGAP ALLPOP

* xyz 0 1 
Li      -2.5161668455      1.6193821313      0.0413723134                 
H       -0.8794522088      1.5810565855      0.0021921869                 
*
