! RHF DZ LARGEPRINT PRINTBASIS PRINTGAP ALLPOP

* xyz 0 1 
Li      -2.1217875114      1.5983770605      0.0011583114                 
H       -0.7878755679      1.5789122137      0.0000000000                 
*
